% Logging successfully configured
%%%mzn-stat: initTime=0.011193698
%%%mzn-stat: objective=999
%%%mzn-stat: nodes=197
%%%mzn-stat: restarts=0
%%%mzn-stat: peakDepth=166
%%%mzn-stat: solveTime=0.012384386
%%%mzn-stat: variables=466
%%%mzn-stat: propagators=289
%%%mzn-stat: failures=26
%%%mzn-stat: propagations=1760
%%%mzn-stat: nogoods=26
%%%mzn-stat: numAtomicConstraintsPropagated=0
%%%mzn-stat: circuitNumber1PropagationsTotal=189
%%%mzn-stat: circuitNumber1CircuitConflicts=21
%%%mzn-stat: circuitNumber1AlldiffConflicts=0
%%%mzn-stat: circuitNumber1TotalFixedEdgesAtConflict=567
%%%mzn-stat: circuitNumber1NumberOfConflicts=21
%%%mzn-stat: circuitNumber1GacPrunings=431
%%%mzn-stat: circuitNumber1PropagationsThatGacPruned=104
%%%mzn-stat: circuitNumber1TotalPruningHallSetSize=4077
%%%mzn-stat: circuitNumber1NumberOfPruningExplanations=431
%%%mzn-stat: circuitNumber1MaxPruningHallSetSize=47
%%%mzn-stat: circuitNumber1TotalSccSizeAtPruning=2474
%%%mzn-stat: circuitNumber1NumberOfSccPruningCalls=104
%%%mzn-stat: circuitNumber1TotalVarsInvolvedInPruning=362
%%%mzn-stat: circuitNumber1MaxValuesPrunedFromSingleVar=4
%%%mzn-stat: circuitNumber1HallCircuitChecks=358
%%%mzn-stat: circuitNumber1HallCircuitPrunings=8
%%%mzn-stat: circuitNumber1CircuitPreventPrunings=82
%%%mzn-stat: AverageConflictSize=4.269230769230769
%%%mzn-stat: NumUnitNogoodsLearned=0
%%%mzn-stat: AverageLearnedNogoodLength=9.923076923076923
%%%mzn-stat: AverageBacktrackAmount=0
%%%mzn-stat: AverageLbd=5.923076923076923
%%%mzn-stat: 2AutonomousSearchNumBackupCalled=151
%%%mzn-stat: 2AutonomousSearchNumPredicatesRemoved=0
%%%mzn-stat: 2AutonomousSearchNumCalls=152
%%%mzn-stat: 2AutonomousSearchNumPredicatesAdded=1182
%%%mzn-stat: 2AutonomousSearchAverageSizeOfHeap=7.776315789473684
%%%mzn-stat: 2AutonomousSearchNumAssignedPredicatesEncountered=1182
%%%mzn-stat-end
maxleg = 999;
succ = array1d(1..50,[2, 6, 8, 9, 35, 15, 48, 24, 34, 20, 7, 19, 1, 16, 4, 41, 26, 5, 17, 21, 44, 50, 13, 38, 46, 32, 14, 23, 31, 33, 47, 27, 39, 12, 3, 22, 36, 49, 40, 37, 25, 43, 18, 11, 28, 10, 30, 42, 29, 45]);
% time elapsed: 8.64 s
----------
==========
% time elapsed: 343.42 s
%%%mzn-stat: initTime=0.011193698
%%%mzn-stat: objective=999
%%%mzn-stat: nodes=460483
%%%mzn-stat: restarts=0
%%%mzn-stat: peakDepth=166
%%%mzn-stat: solveTime=334.846595919
%%%mzn-stat: variables=466
%%%mzn-stat: propagators=289
%%%mzn-stat: failures=413207
%%%mzn-stat: propagations=12821971
%%%mzn-stat: nogoods=413207
%%%mzn-stat: numAtomicConstraintsPropagated=0
%%%mzn-stat: circuitNumber1PropagationsTotal=2212122
%%%mzn-stat: circuitNumber1CircuitConflicts=275662
%%%mzn-stat: circuitNumber1AlldiffConflicts=2006
%%%mzn-stat: circuitNumber1TotalFixedEdgesAtConflict=12700292
%%%mzn-stat: circuitNumber1NumberOfConflicts=277668
%%%mzn-stat: circuitNumber1GacPrunings=3577952
%%%mzn-stat: circuitNumber1PropagationsThatGacPruned=1165268
%%%mzn-stat: circuitNumber1TotalPruningHallSetSize=11786551
%%%mzn-stat: circuitNumber1NumberOfPruningExplanations=3577952
%%%mzn-stat: circuitNumber1MaxPruningHallSetSize=48
%%%mzn-stat: circuitNumber1TotalSccSizeAtPruning=6923763
%%%mzn-stat: circuitNumber1NumberOfSccPruningCalls=1165268
%%%mzn-stat: circuitNumber1TotalVarsInvolvedInPruning=2901058
%%%mzn-stat: circuitNumber1MaxValuesPrunedFromSingleVar=5
%%%mzn-stat: circuitNumber1HallCircuitChecks=3843525
%%%mzn-stat: circuitNumber1HallCircuitPrunings=200602
%%%mzn-stat: circuitNumber1CircuitPreventPrunings=1080412
%%%mzn-stat: AverageConflictSize=40.89537689342146
%%%mzn-stat: NumUnitNogoodsLearned=1
%%%mzn-stat: AverageLearnedNogoodLength=19.867703112483575
%%%mzn-stat: AverageBacktrackAmount=0
%%%mzn-stat: AverageLbd=11.681665605858564
%%%mzn-stat: 2AutonomousSearchNumBackupCalled=151
%%%mzn-stat: 2AutonomousSearchNumPredicatesRemoved=0
%%%mzn-stat: 2AutonomousSearchNumCalls=152
%%%mzn-stat: 2AutonomousSearchNumPredicatesAdded=4230
%%%mzn-stat: 2AutonomousSearchAverageSizeOfHeap=7.776315789473684
%%%mzn-stat: 2AutonomousSearchNumAssignedPredicatesEncountered=1182
%%%mzn-stat-end
